307742
307742
307742
303101
302455
302455
298223
298223
298223
293319
293319
292690
292690
292690
291471
291471
291471
290519
290358
290358
289717
288951
288951
286896
283992
282067
282067
281942
281942
281942
281942
280247
277325
277325
277325
277325
277325
274832
274832
274832
274832
274832
274832
274832
274832
274832
273434
273434
272577
272577
272178
272178
272178
270864
270864
270864
270864
270722
270070
270070
269446
263033
263033
263033
263033
261628
261628
260592
260002
260002
258966
258966
258221
257185
257185
257185
257185
257185
257185
254285
254285
254285
254285
253770
253770
250600
250600
250600
250600
246426
246426
246426
246426
246426
246426
246426
246426
245190
245190
245190
